
Gurobi 9.5.0 (win64) logging started Tue Dec  7 12:38:48 2021

Set parameter LogFile to value "../results/logs/log_2021_12_07_12_26.csv_5_45.log"
Set parameter Method to value 3
Gurobi Optimizer version 9.5.0 build v9.5.0rc5 (win64)
Thread count: 6 physical cores, 12 logical processors, using up to 12 threads
Optimize a model with 1783 rows, 9882 columns and 22585 nonzeros
Model fingerprint: 0xa187213f
Variable types: 4941 continuous, 4941 integer (4941 binary)
Coefficient statistics:
  Matrix range     [1e+00, 5e+00]
  Objective range  [1e+00, 1e+00]
  Bounds range     [1e+00, 1e+00]
  RHS range        [1e+00, 5e+01]
Found heuristic solution: objective 12.0000000
Presolve removed 944 rows and 8566 columns
Presolve time: 0.04s
Presolved: 839 rows, 1316 columns, 4810 nonzeros
Variable types: 741 continuous, 575 integer (555 binary)
Found heuristic solution: objective 23.0000000

Concurrent LP optimizer: primal simplex, dual simplex, and barrier
Showing barrier log only...

Root barrier log...

Ordering time: 0.00s

Barrier statistics:
 AA' NZ     : 3.463e+03
 Factor NZ  : 9.369e+03 (roughly 1 MB of memory)
 Factor Ops : 1.271e+05 (less than 1 second per iteration)
 Threads    : 1

                  Objective                Residual
Iter       Primal          Dual         Primal    Dual     Compl     Time
   0   1.80400436e+03  1.81544293e+03  1.38e+03 8.41e-01  6.93e+00     0s
   1   4.02778470e+02  1.73081502e+03  2.02e+02 3.11e-15  1.24e+00     0s
   2   2.14880981e+02  5.35379474e+02  3.64e+01 2.22e-15  2.14e-01     0s
   3   1.40855844e+02  2.07935360e+02  5.38e+00 3.55e-15  3.76e-02     0s
   4   1.29251667e+02  1.46582746e+02  4.89e-01 3.34e-15  6.58e-03     0s
   5   1.30942559e+02  1.37320807e+02  2.23e-01 2.17e-15  2.53e-03     0s
   6   1.31845038e+02  1.34015669e+02  1.03e-01 1.97e-15  9.23e-04     0s
   7   1.32465092e+02  1.33170259e+02  3.13e-02 4.06e-15  2.94e-04     0s
   8   1.32735436e+02  1.32862724e+02  5.14e-03 2.45e-15  5.16e-05     0s

Barrier performed 8 iterations in 0.07 seconds (0.04 work units)
Barrier solve interrupted - model solved by another algorithm


Solved with primal simplex

Root relaxation: objective 1.328007e+02, 774 iterations, 0.01 seconds (0.01 work units)

    Nodes    |    Current Node    |     Objective Bounds      |     Work
 Expl Unexpl |  Obj  Depth IntInf | Incumbent    BestBd   Gap | It/Node Time

     0     0  132.80065    0  280   23.00000  132.80065   477%     -    0s
H    0     0                      62.0000000  132.80065   114%     -    0s
     0     0   93.79051    0  141   62.00000   93.79051  51.3%     -    0s
     0     0   92.40673    0  130   62.00000   92.40673  49.0%     -    0s
     0     0   92.24933    0  126   62.00000   92.24933  48.8%     -    0s
     0     0   92.23815    0  126   62.00000   92.23815  48.8%     -    0s
     0     0   85.72658    0  102   62.00000   85.72658  38.3%     -    0s
     0     0   84.74543    0   90   62.00000   84.74543  36.7%     -    0s
     0     0   84.60643    0   94   62.00000   84.60643  36.5%     -    0s
     0     0   84.59360    0   93   62.00000   84.59360  36.4%     -    0s
     0     0   83.54771    0   99   62.00000   83.54771  34.8%     -    0s
     0     0   83.41656    0   73   62.00000   83.41656  34.5%     -    0s
     0     0   83.39715    0   61   62.00000   83.39715  34.5%     -    0s
     0     0   82.74303    0  102   62.00000   82.74303  33.5%     -    0s
     0     0   82.56094    0   76   62.00000   82.56094  33.2%     -    0s
     0     0   82.48593    0   88   62.00000   82.48593  33.0%     -    0s
     0     0   82.46466    0   86   62.00000   82.46466  33.0%     -    0s
     0     0   82.30360    0   71   62.00000   82.30360  32.7%     -    0s
     0     0   82.23583    0   76   62.00000   82.23583  32.6%     -    0s
     0     0   82.21984    0   78   62.00000   82.21984  32.6%     -    0s
     0     0   82.03394    0   77   62.00000   82.03394  32.3%     -    0s
     0     0   82.03394    0   77   62.00000   82.03394  32.3%     -    0s
H    0     0                      64.0000000   82.03394  28.2%     -    0s
     0     2   82.03394    0   77   64.00000   82.03394  28.2%     -    0s
H  121   133                      77.0000000   81.56587  5.93%  24.4    0s
*  152   138              20      78.0000000   81.56587  4.57%  24.6    0s
*  331   210              35      80.0000000   81.17035  1.46%  26.0    1s

Cutting planes:
  Gomory: 90
  Lift-and-project: 9
  Implied bound: 12
  MIR: 353
  RLT: 75
  Relax-and-lift: 12

Explored 424 nodes (11507 simplex iterations) in 1.07 seconds (0.85 work units)
Thread count was 12 (of 12 available processors)

Solution count 7: 80 78 77 ... 12

Optimal solution found (tolerance 1.00e-04)
Best objective 8.000000000000e+01, best bound 8.000000000000e+01, gap 0.0000%
